NAME: bip_20_8
TYPE: TSP
COMMENT: bip_20_8
DIMENSION: 20
EDGE_WEIGHT_TYPE: EUC_2D
NODE_COORD_SECTION
1 56 70
2 55 22
3 84 5
4 0 9
5 47 16
6 67 72
7 8 25
8 10 76
9 26 40
10 25 62
11 441 400
12 464 438
13 408 456
14 481 429
15 457 442
16 475 469
17 437 425
18 417 456
19 465 481
20 494 471
